N = 5;
H = 5;
T = 2;

avail = array3d(1..N, 1..H, 1..T, [3, 5, 7, 8, 0, 4, 10, 8, 1, 7, 5, 7, 7, 7, 2, 9, 3, 1, 8, 8, 8, 0, 8, 4, 7, 4, 10, 4, 3, 10, 9, 2, 1, 4, 6, 9, 1, 4, 9, 5, 9, 2, 4, 2, 1, 4, 1, 0, 9, 9]);

r = array2d(1..H, 1..T, [2, 0, 2, 0, 0, 1, 1, 0, 2, 1]);
